41
5
0 5 6 7 8 9 10 11 12 13 14 17 18 19 21 22 23 25 26 28 29 30 31 32 37 38
1 6 7 8 9 10 11 12 13 14 15 17 18 19 20 21 23 31 33 34 35 38
2 5 6 8 9 11 14 16 17 19 20 21 24 26 28 32 35 37 38 39
3 8 9 10 13 21 24 29 31 36 38 40
4 23 26 27 32 34
